n_potions = 66;
alchemy = [2, 3, 4, 3, 2, 5, 4, 4, 4, 1, 2, 2, 1, 2, 5, 2, 5, 5, 3, 5, 3, 2, 4, 2, 4, 3, 1, 1, 1, 5, 3, 3, 3, 5, 3, 2, 3, 2, 5, 3, 3, 4, 1, 2, 3, 4, 4, 4, 3, 3, 5, 3, 3, 4, 5, 3, 1, 5, 1, 3, 4, 3, 1, 4, 5, 1];
n_days = 12;
min_potions = 5;
max_potions = 7;
min_alchemists = 5;
max_alchemists = 35;
prereqs = [|7,1
|8,2
|8,6
|10,5
|11,5
|11,6
|13,8
|13,11
|14,3
|16,9
|17,10
|17,11
|18,11
|19,8
|19,11
|21,10
|23,17
|23,18
|24,13
|24,19
|26,13
|26,23
|30,9
|33,27
|35,18
|37,20
|37,35
|38,33
|39,35
|41,9
|41,17
|41,18
|43,20
|44,16
|46,37
|47,42
|48,34
|48,35
|49,30
|49,32
|51,33
|54,50
|55,43
|56,51
|57,39
|61,48
|61,55
|62,31
|63,48
|65,59
|];
